<?xml version = "1.0" standalone="yes"?>
<!-- This file has been generated by DOcplex version 2.23.222  -->
<CPLEXSolution version="1.0">
 <header
   problemName="CVRP"
   objectiveValue="7764.9"
  />
 <variables>
  <variable name="x_0_1" index="0" value="1.00000"/>
  <variable name="x_0_2" index="1" value="1.00000"/>
  <variable name="x_0_4" index="3" value="1.00000"/>
  <variable name="x_0_6" index="5" value="1.00000"/>
  <variable name="x_0_9" index="8" value="1.00000"/>
  <variable name="x_1_10" index="19" value="1.00000"/>
  <variable name="x_2_5" index="24" value="1.00000"/>
  <variable name="x_3_0" index="30" value="1.00000"/>
  <variable name="x_4_7" index="46" value="1.00000"/>
  <variable name="x_5_0" index="50" value="1.00000"/>
  <variable name="x_6_0" index="60" value="1.00000"/>
  <variable name="x_7_3" index="73" value="1.00000"/>
  <variable name="x_8_0" index="80" value="1.00000"/>
  <variable name="x_9_8" index="98" value="1.00000"/>
  <variable name="x_10_0" index="100" value="1.00000"/>
  <variable name="u_1" index="110" value="42.00000"/>
  <variable name="u_2" index="111" value="11.00000"/>
  <variable name="u_3" index="112" value="60.00000"/>
  <variable name="u_4" index="113" value="19.00000"/>
  <variable name="u_5" index="114" value="60.00000"/>
  <variable name="u_6" index="115" value="27.00000"/>
  <variable name="u_7" index="116" value="25.00000"/>
  <variable name="u_8" index="117" value="47.00000"/>
  <variable name="u_9" index="118" value="3.00000"/>
  <variable name="u_10" index="119" value="55.00000"/>
 </variables>
</CPLEXSolution>
